NAME : single
TYPE : ATSP
DIMENSION : 13
EDGE_WEIGHT_TYPE : EXPLICIT
EDGE_WEIGHT_FORMAT : FULL_MATRIX
EDGE_WEIGHT_SECTION
0 1247 1030 1151 910 1095 1104 1100 594 549 123 401 148 
0 0 328 288 319 300 297 377 688 50000 770 674 895 
0 230 0 270 159 183 177 241 560 670 651 456 749 
0 288 270 0 0 0 161 223 500 50000 706 546 810 
0 319 159 161 0 161 0 0 317 419 562 371 640 
0 300 183 223 133 0 223 133 476 670 692 494 767 
0 297 177 175 142 47 0 175 486 674 697 507 775 
0 377 241 96 234 288 264 0 454 638 686 487 770 
0 688 560 500 317 476 486 454 0 96 521 140 303 
0 50000 670 50000 419 670 674 638 212 0 687 245 304 
0 770 651 706 562 692 697 686 521 687 0 200 108 
0 674 456 546 371 494 507 487 140 245 200 0 167 
0 895 749 810 640 767 775 770 303 304 108 167 0 
